50
11934

871 232
743 492
556 903
749 520
817 719
746 859
835 191
450 294
784 572
900 336
180 32
142 95
567 482
105 873
35 372
485 472
708 180
984 384
902 917
322 788
600 393
841 638
70 506
483 424
385 352
685 977
156 104
899 429
798 578
77 167
193 90
796 938
152 742
100 776
381 283
464 16
752 984
724 877
376 21
484 218
727 232
272 172
845 869
912 896
518 33
309 537
39 977
240 642
653 914
443 131
